c *********************************
c * Circuit generated by BenCGen
c *
c * CarryLookaheadBlock_63_63_63_InOutT
c *
c * Ports with 1 gate(s): 2
c * Ports with 2 gate(s): 269
c * Ports with 3 gate(s): 63
c * Ports with 4 gate(s): 47
c * Ports with 5 gate(s): 30
c * Total gates: 411
c *********************************
p cnf 537 1604
1 192 0
-1 -192 0
1 -191 0
192 -191 0
-1 -192 191 0
1 64 -193 0
-1 64 193 0
1 -64 193 0
-1 -64 -193 0
1 -256 0
64 -256 0
-1 -64 256 0
2 65 -194 0
-2 65 194 0
2 -65 194 0
-2 -65 -194 0
2 -257 0
65 -257 0
-2 -65 257 0
3 66 -195 0
-3 66 195 0
3 -66 195 0
-3 -66 -195 0
3 -258 0
66 -258 0
-3 -66 258 0
4 67 -196 0
-4 67 196 0
4 -67 196 0
-4 -67 -196 0
4 -259 0
67 -259 0
-4 -67 259 0
5 68 -197 0
-5 68 197 0
5 -68 197 0
-5 -68 -197 0
5 -260 0
68 -260 0
-5 -68 260 0
6 69 -198 0
-6 69 198 0
6 -69 198 0
-6 -69 -198 0
6 -261 0
69 -261 0
-6 -69 261 0
7 70 -199 0
-7 70 199 0
7 -70 199 0
-7 -70 -199 0
7 -262 0
70 -262 0
-7 -70 262 0
8 71 -200 0
-8 71 200 0
8 -71 200 0
-8 -71 -200 0
8 -263 0
71 -263 0
-8 -71 263 0
9 72 -201 0
-9 72 201 0
9 -72 201 0
-9 -72 -201 0
9 -264 0
72 -264 0
-9 -72 264 0
10 73 -202 0
-10 73 202 0
10 -73 202 0
-10 -73 -202 0
10 -265 0
73 -265 0
-10 -73 265 0
11 74 -203 0
-11 74 203 0
11 -74 203 0
-11 -74 -203 0
11 -266 0
74 -266 0
-11 -74 266 0
12 75 -204 0
-12 75 204 0
12 -75 204 0
-12 -75 -204 0
12 -267 0
75 -267 0
-12 -75 267 0
13 76 -205 0
-13 76 205 0
13 -76 205 0
-13 -76 -205 0
13 -268 0
76 -268 0
-13 -76 268 0
14 77 -206 0
-14 77 206 0
14 -77 206 0
-14 -77 -206 0
14 -269 0
77 -269 0
-14 -77 269 0
15 78 -207 0
-15 78 207 0
15 -78 207 0
-15 -78 -207 0
15 -270 0
78 -270 0
-15 -78 270 0
16 79 -208 0
-16 79 208 0
16 -79 208 0
-16 -79 -208 0
16 -271 0
79 -271 0
-16 -79 271 0
17 80 -209 0
-17 80 209 0
17 -80 209 0
-17 -80 -209 0
17 -272 0
80 -272 0
-17 -80 272 0
18 81 -210 0
-18 81 210 0
18 -81 210 0
-18 -81 -210 0
18 -273 0
81 -273 0
-18 -81 273 0
19 82 -211 0
-19 82 211 0
19 -82 211 0
-19 -82 -211 0
19 -274 0
82 -274 0
-19 -82 274 0
20 83 -212 0
-20 83 212 0
20 -83 212 0
-20 -83 -212 0
20 -275 0
83 -275 0
-20 -83 275 0
21 84 -213 0
-21 84 213 0
21 -84 213 0
-21 -84 -213 0
21 -276 0
84 -276 0
-21 -84 276 0
22 85 -214 0
-22 85 214 0
22 -85 214 0
-22 -85 -214 0
22 -277 0
85 -277 0
-22 -85 277 0
23 86 -215 0
-23 86 215 0
23 -86 215 0
-23 -86 -215 0
23 -278 0
86 -278 0
-23 -86 278 0
24 87 -216 0
-24 87 216 0
24 -87 216 0
-24 -87 -216 0
24 -279 0
87 -279 0
-24 -87 279 0
25 88 -217 0
-25 88 217 0
25 -88 217 0
-25 -88 -217 0
25 -280 0
88 -280 0
-25 -88 280 0
26 89 -218 0
-26 89 218 0
26 -89 218 0
-26 -89 -218 0
26 -281 0
89 -281 0
-26 -89 281 0
27 90 -219 0
-27 90 219 0
27 -90 219 0
-27 -90 -219 0
27 -282 0
90 -282 0
-27 -90 282 0
28 91 -220 0
-28 91 220 0
28 -91 220 0
-28 -91 -220 0
28 -283 0
91 -283 0
-28 -91 283 0
29 92 -221 0
-29 92 221 0
29 -92 221 0
-29 -92 -221 0
29 -284 0
92 -284 0
-29 -92 284 0
30 93 -222 0
-30 93 222 0
30 -93 222 0
-30 -93 -222 0
30 -285 0
93 -285 0
-30 -93 285 0
31 94 -223 0
-31 94 223 0
31 -94 223 0
-31 -94 -223 0
31 -286 0
94 -286 0
-31 -94 286 0
32 95 -224 0
-32 95 224 0
32 -95 224 0
-32 -95 -224 0
32 -287 0
95 -287 0
-32 -95 287 0
33 96 -225 0
-33 96 225 0
33 -96 225 0
-33 -96 -225 0
33 -288 0
96 -288 0
-33 -96 288 0
34 97 -226 0
-34 97 226 0
34 -97 226 0
-34 -97 -226 0
34 -289 0
97 -289 0
-34 -97 289 0
35 98 -227 0
-35 98 227 0
35 -98 227 0
-35 -98 -227 0
35 -290 0
98 -290 0
-35 -98 290 0
36 99 -228 0
-36 99 228 0
36 -99 228 0
-36 -99 -228 0
36 -291 0
99 -291 0
-36 -99 291 0
37 100 -229 0
-37 100 229 0
37 -100 229 0
-37 -100 -229 0
37 -292 0
100 -292 0
-37 -100 292 0
38 101 -230 0
-38 101 230 0
38 -101 230 0
-38 -101 -230 0
38 -293 0
101 -293 0
-38 -101 293 0
39 102 -231 0
-39 102 231 0
39 -102 231 0
-39 -102 -231 0
39 -294 0
102 -294 0
-39 -102 294 0
40 103 -232 0
-40 103 232 0
40 -103 232 0
-40 -103 -232 0
40 -295 0
103 -295 0
-40 -103 295 0
41 104 -233 0
-41 104 233 0
41 -104 233 0
-41 -104 -233 0
41 -296 0
104 -296 0
-41 -104 296 0
42 105 -234 0
-42 105 234 0
42 -105 234 0
-42 -105 -234 0
42 -297 0
105 -297 0
-42 -105 297 0
43 106 -235 0
-43 106 235 0
43 -106 235 0
-43 -106 -235 0
43 -298 0
106 -298 0
-43 -106 298 0
44 107 -236 0
-44 107 236 0
44 -107 236 0
-44 -107 -236 0
44 -299 0
107 -299 0
-44 -107 299 0
45 108 -237 0
-45 108 237 0
45 -108 237 0
-45 -108 -237 0
45 -300 0
108 -300 0
-45 -108 300 0
46 109 -238 0
-46 109 238 0
46 -109 238 0
-46 -109 -238 0
46 -301 0
109 -301 0
-46 -109 301 0
47 110 -239 0
-47 110 239 0
47 -110 239 0
-47 -110 -239 0
47 -302 0
110 -302 0
-47 -110 302 0
48 111 -240 0
-48 111 240 0
48 -111 240 0
-48 -111 -240 0
48 -303 0
111 -303 0
-48 -111 303 0
49 112 -241 0
-49 112 241 0
49 -112 241 0
-49 -112 -241 0
49 -304 0
112 -304 0
-49 -112 304 0
50 113 -242 0
-50 113 242 0
50 -113 242 0
-50 -113 -242 0
50 -305 0
113 -305 0
-50 -113 305 0
51 114 -243 0
-51 114 243 0
51 -114 243 0
-51 -114 -243 0
51 -306 0
114 -306 0
-51 -114 306 0
52 115 -244 0
-52 115 244 0
52 -115 244 0
-52 -115 -244 0
52 -307 0
115 -307 0
-52 -115 307 0
53 116 -245 0
-53 116 245 0
53 -116 245 0
-53 -116 -245 0
53 -308 0
116 -308 0
-53 -116 308 0
54 117 -246 0
-54 117 246 0
54 -117 246 0
-54 -117 -246 0
54 -309 0
117 -309 0
-54 -117 309 0
55 118 -247 0
-55 118 247 0
55 -118 247 0
-55 -118 -247 0
55 -310 0
118 -310 0
-55 -118 310 0
56 119 -248 0
-56 119 248 0
56 -119 248 0
-56 -119 -248 0
56 -311 0
119 -311 0
-56 -119 311 0
57 120 -249 0
-57 120 249 0
57 -120 249 0
-57 -120 -249 0
57 -312 0
120 -312 0
-57 -120 312 0
58 121 -250 0
-58 121 250 0
58 -121 250 0
-58 -121 -250 0
58 -313 0
121 -313 0
-58 -121 313 0
59 122 -251 0
-59 122 251 0
59 -122 251 0
-59 -122 -251 0
59 -314 0
122 -314 0
-59 -122 314 0
60 123 -252 0
-60 123 252 0
60 -123 252 0
-60 -123 -252 0
60 -315 0
123 -315 0
-60 -123 315 0
61 124 -253 0
-61 124 253 0
61 -124 253 0
-61 -124 -253 0
61 -316 0
124 -316 0
-61 -124 316 0
62 125 -254 0
-62 125 254 0
62 -125 254 0
-62 -125 -254 0
62 -317 0
125 -317 0
-62 -125 317 0
63 126 -255 0
-63 126 255 0
63 -126 255 0
-63 -126 -255 0
63 -318 0
126 -318 0
-63 -126 318 0
191 -382 0
193 -382 0
-191 -193 382 0
191 -383 0
193 -383 0
194 -383 0
-191 -193 -194 383 0
256 -384 0
194 -384 0
-256 -194 384 0
191 -385 0
193 -385 0
194 -385 0
195 -385 0
-191 -193 -194 -195 385 0
256 -386 0
194 -386 0
195 -386 0
-256 -194 -195 386 0
257 -387 0
195 -387 0
-257 -195 387 0
191 -388 0
193 -388 0
194 -388 0
195 -388 0
196 -388 0
-191 -193 -194 -195 -196 388 0
256 -389 0
194 -389 0
195 -389 0
196 -389 0
-256 -194 -195 -196 389 0
257 -390 0
195 -390 0
196 -390 0
-257 -195 -196 390 0
258 -391 0
196 -391 0
-258 -196 391 0
-256 319 0
-382 319 0
256 382 -319 0
-257 320 0
-383 320 0
-384 320 0
257 383 384 -320 0
-258 321 0
-385 321 0
-386 321 0
-387 321 0
258 385 386 387 -321 0
-259 322 0
-388 322 0
-389 322 0
-390 322 0
-391 322 0
259 388 389 390 391 -322 0
322 -392 0
197 -392 0
-322 -197 392 0
322 -393 0
197 -393 0
198 -393 0
-322 -197 -198 393 0
260 -394 0
198 -394 0
-260 -198 394 0
322 -395 0
197 -395 0
198 -395 0
199 -395 0
-322 -197 -198 -199 395 0
260 -396 0
198 -396 0
199 -396 0
-260 -198 -199 396 0
261 -397 0
199 -397 0
-261 -199 397 0
322 -398 0
197 -398 0
198 -398 0
199 -398 0
200 -398 0
-322 -197 -198 -199 -200 398 0
260 -399 0
198 -399 0
199 -399 0
200 -399 0
-260 -198 -199 -200 399 0
261 -400 0
199 -400 0
200 -400 0
-261 -199 -200 400 0
262 -401 0
200 -401 0
-262 -200 401 0
-260 323 0
-392 323 0
260 392 -323 0
-261 324 0
-393 324 0
-394 324 0
261 393 394 -324 0
-262 325 0
-395 325 0
-396 325 0
-397 325 0
262 395 396 397 -325 0
-263 326 0
-398 326 0
-399 326 0
-400 326 0
-401 326 0
263 398 399 400 401 -326 0
326 -402 0
201 -402 0
-326 -201 402 0
326 -403 0
201 -403 0
202 -403 0
-326 -201 -202 403 0
264 -404 0
202 -404 0
-264 -202 404 0
326 -405 0
201 -405 0
202 -405 0
203 -405 0
-326 -201 -202 -203 405 0
264 -406 0
202 -406 0
203 -406 0
-264 -202 -203 406 0
265 -407 0
203 -407 0
-265 -203 407 0
326 -408 0
201 -408 0
202 -408 0
203 -408 0
204 -408 0
-326 -201 -202 -203 -204 408 0
264 -409 0
202 -409 0
203 -409 0
204 -409 0
-264 -202 -203 -204 409 0
265 -410 0
203 -410 0
204 -410 0
-265 -203 -204 410 0
266 -411 0
204 -411 0
-266 -204 411 0
-264 327 0
-402 327 0
264 402 -327 0
-265 328 0
-403 328 0
-404 328 0
265 403 404 -328 0
-266 329 0
-405 329 0
-406 329 0
-407 329 0
266 405 406 407 -329 0
-267 330 0
-408 330 0
-409 330 0
-410 330 0
-411 330 0
267 408 409 410 411 -330 0
330 -412 0
205 -412 0
-330 -205 412 0
330 -413 0
205 -413 0
206 -413 0
-330 -205 -206 413 0
268 -414 0
206 -414 0
-268 -206 414 0
330 -415 0
205 -415 0
206 -415 0
207 -415 0
-330 -205 -206 -207 415 0
268 -416 0
206 -416 0
207 -416 0
-268 -206 -207 416 0
269 -417 0
207 -417 0
-269 -207 417 0
330 -418 0
205 -418 0
206 -418 0
207 -418 0
208 -418 0
-330 -205 -206 -207 -208 418 0
268 -419 0
206 -419 0
207 -419 0
208 -419 0
-268 -206 -207 -208 419 0
269 -420 0
207 -420 0
208 -420 0
-269 -207 -208 420 0
270 -421 0
208 -421 0
-270 -208 421 0
-268 331 0
-412 331 0
268 412 -331 0
-269 332 0
-413 332 0
-414 332 0
269 413 414 -332 0
-270 333 0
-415 333 0
-416 333 0
-417 333 0
270 415 416 417 -333 0
-271 334 0
-418 334 0
-419 334 0
-420 334 0
-421 334 0
271 418 419 420 421 -334 0
334 -422 0
209 -422 0
-334 -209 422 0
334 -423 0
209 -423 0
210 -423 0
-334 -209 -210 423 0
272 -424 0
210 -424 0
-272 -210 424 0
334 -425 0
209 -425 0
210 -425 0
211 -425 0
-334 -209 -210 -211 425 0
272 -426 0
210 -426 0
211 -426 0
-272 -210 -211 426 0
273 -427 0
211 -427 0
-273 -211 427 0
334 -428 0
209 -428 0
210 -428 0
211 -428 0
212 -428 0
-334 -209 -210 -211 -212 428 0
272 -429 0
210 -429 0
211 -429 0
212 -429 0
-272 -210 -211 -212 429 0
273 -430 0
211 -430 0
212 -430 0
-273 -211 -212 430 0
274 -431 0
212 -431 0
-274 -212 431 0
-272 335 0
-422 335 0
272 422 -335 0
-273 336 0
-423 336 0
-424 336 0
273 423 424 -336 0
-274 337 0
-425 337 0
-426 337 0
-427 337 0
274 425 426 427 -337 0
-275 338 0
-428 338 0
-429 338 0
-430 338 0
-431 338 0
275 428 429 430 431 -338 0
338 -432 0
213 -432 0
-338 -213 432 0
338 -433 0
213 -433 0
214 -433 0
-338 -213 -214 433 0
276 -434 0
214 -434 0
-276 -214 434 0
338 -435 0
213 -435 0
214 -435 0
215 -435 0
-338 -213 -214 -215 435 0
276 -436 0
214 -436 0
215 -436 0
-276 -214 -215 436 0
277 -437 0
215 -437 0
-277 -215 437 0
338 -438 0
213 -438 0
214 -438 0
215 -438 0
216 -438 0
-338 -213 -214 -215 -216 438 0
276 -439 0
214 -439 0
215 -439 0
216 -439 0
-276 -214 -215 -216 439 0
277 -440 0
215 -440 0
216 -440 0
-277 -215 -216 440 0
278 -441 0
216 -441 0
-278 -216 441 0
-276 339 0
-432 339 0
276 432 -339 0
-277 340 0
-433 340 0
-434 340 0
277 433 434 -340 0
-278 341 0
-435 341 0
-436 341 0
-437 341 0
278 435 436 437 -341 0
-279 342 0
-438 342 0
-439 342 0
-440 342 0
-441 342 0
279 438 439 440 441 -342 0
342 -442 0
217 -442 0
-342 -217 442 0
342 -443 0
217 -443 0
218 -443 0
-342 -217 -218 443 0
280 -444 0
218 -444 0
-280 -218 444 0
342 -445 0
217 -445 0
218 -445 0
219 -445 0
-342 -217 -218 -219 445 0
280 -446 0
218 -446 0
219 -446 0
-280 -218 -219 446 0
281 -447 0
219 -447 0
-281 -219 447 0
342 -448 0
217 -448 0
218 -448 0
219 -448 0
220 -448 0
-342 -217 -218 -219 -220 448 0
280 -449 0
218 -449 0
219 -449 0
220 -449 0
-280 -218 -219 -220 449 0
281 -450 0
219 -450 0
220 -450 0
-281 -219 -220 450 0
282 -451 0
220 -451 0
-282 -220 451 0
-280 343 0
-442 343 0
280 442 -343 0
-281 344 0
-443 344 0
-444 344 0
281 443 444 -344 0
-282 345 0
-445 345 0
-446 345 0
-447 345 0
282 445 446 447 -345 0
-283 346 0
-448 346 0
-449 346 0
-450 346 0
-451 346 0
283 448 449 450 451 -346 0
346 -452 0
221 -452 0
-346 -221 452 0
346 -453 0
221 -453 0
222 -453 0
-346 -221 -222 453 0
284 -454 0
222 -454 0
-284 -222 454 0
346 -455 0
221 -455 0
222 -455 0
223 -455 0
-346 -221 -222 -223 455 0
284 -456 0
222 -456 0
223 -456 0
-284 -222 -223 456 0
285 -457 0
223 -457 0
-285 -223 457 0
346 -458 0
221 -458 0
222 -458 0
223 -458 0
224 -458 0
-346 -221 -222 -223 -224 458 0
284 -459 0
222 -459 0
223 -459 0
224 -459 0
-284 -222 -223 -224 459 0
285 -460 0
223 -460 0
224 -460 0
-285 -223 -224 460 0
286 -461 0
224 -461 0
-286 -224 461 0
-284 347 0
-452 347 0
284 452 -347 0
-285 348 0
-453 348 0
-454 348 0
285 453 454 -348 0
-286 349 0
-455 349 0
-456 349 0
-457 349 0
286 455 456 457 -349 0
-287 350 0
-458 350 0
-459 350 0
-460 350 0
-461 350 0
287 458 459 460 461 -350 0
350 -462 0
225 -462 0
-350 -225 462 0
350 -463 0
225 -463 0
226 -463 0
-350 -225 -226 463 0
288 -464 0
226 -464 0
-288 -226 464 0
350 -465 0
225 -465 0
226 -465 0
227 -465 0
-350 -225 -226 -227 465 0
288 -466 0
226 -466 0
227 -466 0
-288 -226 -227 466 0
289 -467 0
227 -467 0
-289 -227 467 0
350 -468 0
225 -468 0
226 -468 0
227 -468 0
228 -468 0
-350 -225 -226 -227 -228 468 0
288 -469 0
226 -469 0
227 -469 0
228 -469 0
-288 -226 -227 -228 469 0
289 -470 0
227 -470 0
228 -470 0
-289 -227 -228 470 0
290 -471 0
228 -471 0
-290 -228 471 0
-288 351 0
-462 351 0
288 462 -351 0
-289 352 0
-463 352 0
-464 352 0
289 463 464 -352 0
-290 353 0
-465 353 0
-466 353 0
-467 353 0
290 465 466 467 -353 0
-291 354 0
-468 354 0
-469 354 0
-470 354 0
-471 354 0
291 468 469 470 471 -354 0
354 -472 0
229 -472 0
-354 -229 472 0
354 -473 0
229 -473 0
230 -473 0
-354 -229 -230 473 0
292 -474 0
230 -474 0
-292 -230 474 0
354 -475 0
229 -475 0
230 -475 0
231 -475 0
-354 -229 -230 -231 475 0
292 -476 0
230 -476 0
231 -476 0
-292 -230 -231 476 0
293 -477 0
231 -477 0
-293 -231 477 0
354 -478 0
229 -478 0
230 -478 0
231 -478 0
232 -478 0
-354 -229 -230 -231 -232 478 0
292 -479 0
230 -479 0
231 -479 0
232 -479 0
-292 -230 -231 -232 479 0
293 -480 0
231 -480 0
232 -480 0
-293 -231 -232 480 0
294 -481 0
232 -481 0
-294 -232 481 0
-292 355 0
-472 355 0
292 472 -355 0
-293 356 0
-473 356 0
-474 356 0
293 473 474 -356 0
-294 357 0
-475 357 0
-476 357 0
-477 357 0
294 475 476 477 -357 0
-295 358 0
-478 358 0
-479 358 0
-480 358 0
-481 358 0
295 478 479 480 481 -358 0
358 -482 0
233 -482 0
-358 -233 482 0
358 -483 0
233 -483 0
234 -483 0
-358 -233 -234 483 0
296 -484 0
234 -484 0
-296 -234 484 0
358 -485 0
233 -485 0
234 -485 0
235 -485 0
-358 -233 -234 -235 485 0
296 -486 0
234 -486 0
235 -486 0
-296 -234 -235 486 0
297 -487 0
235 -487 0
-297 -235 487 0
358 -488 0
233 -488 0
234 -488 0
235 -488 0
236 -488 0
-358 -233 -234 -235 -236 488 0
296 -489 0
234 -489 0
235 -489 0
236 -489 0
-296 -234 -235 -236 489 0
297 -490 0
235 -490 0
236 -490 0
-297 -235 -236 490 0
298 -491 0
236 -491 0
-298 -236 491 0
-296 359 0
-482 359 0
296 482 -359 0
-297 360 0
-483 360 0
-484 360 0
297 483 484 -360 0
-298 361 0
-485 361 0
-486 361 0
-487 361 0
298 485 486 487 -361 0
-299 362 0
-488 362 0
-489 362 0
-490 362 0
-491 362 0
299 488 489 490 491 -362 0
362 -492 0
237 -492 0
-362 -237 492 0
362 -493 0
237 -493 0
238 -493 0
-362 -237 -238 493 0
300 -494 0
238 -494 0
-300 -238 494 0
362 -495 0
237 -495 0
238 -495 0
239 -495 0
-362 -237 -238 -239 495 0
300 -496 0
238 -496 0
239 -496 0
-300 -238 -239 496 0
301 -497 0
239 -497 0
-301 -239 497 0
362 -498 0
237 -498 0
238 -498 0
239 -498 0
240 -498 0
-362 -237 -238 -239 -240 498 0
300 -499 0
238 -499 0
239 -499 0
240 -499 0
-300 -238 -239 -240 499 0
301 -500 0
239 -500 0
240 -500 0
-301 -239 -240 500 0
302 -501 0
240 -501 0
-302 -240 501 0
-300 363 0
-492 363 0
300 492 -363 0
-301 364 0
-493 364 0
-494 364 0
301 493 494 -364 0
-302 365 0
-495 365 0
-496 365 0
-497 365 0
302 495 496 497 -365 0
-303 366 0
-498 366 0
-499 366 0
-500 366 0
-501 366 0
303 498 499 500 501 -366 0
366 -502 0
241 -502 0
-366 -241 502 0
366 -503 0
241 -503 0
242 -503 0
-366 -241 -242 503 0
304 -504 0
242 -504 0
-304 -242 504 0
366 -505 0
241 -505 0
242 -505 0
243 -505 0
-366 -241 -242 -243 505 0
304 -506 0
242 -506 0
243 -506 0
-304 -242 -243 506 0
305 -507 0
243 -507 0
-305 -243 507 0
366 -508 0
241 -508 0
242 -508 0
243 -508 0
244 -508 0
-366 -241 -242 -243 -244 508 0
304 -509 0
242 -509 0
243 -509 0
244 -509 0
-304 -242 -243 -244 509 0
305 -510 0
243 -510 0
244 -510 0
-305 -243 -244 510 0
306 -511 0
244 -511 0
-306 -244 511 0
-304 367 0
-502 367 0
304 502 -367 0
-305 368 0
-503 368 0
-504 368 0
305 503 504 -368 0
-306 369 0
-505 369 0
-506 369 0
-507 369 0
306 505 506 507 -369 0
-307 370 0
-508 370 0
-509 370 0
-510 370 0
-511 370 0
307 508 509 510 511 -370 0
370 -512 0
245 -512 0
-370 -245 512 0
370 -513 0
245 -513 0
246 -513 0
-370 -245 -246 513 0
308 -514 0
246 -514 0
-308 -246 514 0
370 -515 0
245 -515 0
246 -515 0
247 -515 0
-370 -245 -246 -247 515 0
308 -516 0
246 -516 0
247 -516 0
-308 -246 -247 516 0
309 -517 0
247 -517 0
-309 -247 517 0
370 -518 0
245 -518 0
246 -518 0
247 -518 0
248 -518 0
-370 -245 -246 -247 -248 518 0
308 -519 0
246 -519 0
247 -519 0
248 -519 0
-308 -246 -247 -248 519 0
309 -520 0
247 -520 0
248 -520 0
-309 -247 -248 520 0
310 -521 0
248 -521 0
-310 -248 521 0
-308 371 0
-512 371 0
308 512 -371 0
-309 372 0
-513 372 0
-514 372 0
309 513 514 -372 0
-310 373 0
-515 373 0
-516 373 0
-517 373 0
310 515 516 517 -373 0
-311 374 0
-518 374 0
-519 374 0
-520 374 0
-521 374 0
311 518 519 520 521 -374 0
374 -522 0
249 -522 0
-374 -249 522 0
374 -523 0
249 -523 0
250 -523 0
-374 -249 -250 523 0
312 -524 0
250 -524 0
-312 -250 524 0
374 -525 0
249 -525 0
250 -525 0
251 -525 0
-374 -249 -250 -251 525 0
312 -526 0
250 -526 0
251 -526 0
-312 -250 -251 526 0
313 -527 0
251 -527 0
-313 -251 527 0
374 -528 0
249 -528 0
250 -528 0
251 -528 0
252 -528 0
-374 -249 -250 -251 -252 528 0
312 -529 0
250 -529 0
251 -529 0
252 -529 0
-312 -250 -251 -252 529 0
313 -530 0
251 -530 0
252 -530 0
-313 -251 -252 530 0
314 -531 0
252 -531 0
-314 -252 531 0
-312 375 0
-522 375 0
312 522 -375 0
-313 376 0
-523 376 0
-524 376 0
313 523 524 -376 0
-314 377 0
-525 377 0
-526 377 0
-527 377 0
314 525 526 527 -377 0
-315 378 0
-528 378 0
-529 378 0
-530 378 0
-531 378 0
315 528 529 530 531 -378 0
378 -532 0
253 -532 0
-378 -253 532 0
378 -533 0
253 -533 0
254 -533 0
-378 -253 -254 533 0
316 -534 0
254 -534 0
-316 -254 534 0
378 -535 0
253 -535 0
254 -535 0
255 -535 0
-378 -253 -254 -255 535 0
316 -536 0
254 -536 0
255 -536 0
-316 -254 -255 536 0
317 -537 0
255 -537 0
-317 -255 537 0
-316 379 0
-532 379 0
316 532 -379 0
-317 380 0
-533 380 0
-534 380 0
317 533 534 -380 0
-318 381 0
-535 381 0
-536 381 0
-537 381 0
318 535 536 537 -381 0
193 191 -127 0
-193 191 127 0
193 -191 127 0
-193 -191 -127 0
194 319 -128 0
-194 319 128 0
194 -319 128 0
-194 -319 -128 0
195 320 -129 0
-195 320 129 0
195 -320 129 0
-195 -320 -129 0
196 321 -130 0
-196 321 130 0
196 -321 130 0
-196 -321 -130 0
197 322 -131 0
-197 322 131 0
197 -322 131 0
-197 -322 -131 0
198 323 -132 0
-198 323 132 0
198 -323 132 0
-198 -323 -132 0
199 324 -133 0
-199 324 133 0
199 -324 133 0
-199 -324 -133 0
200 325 -134 0
-200 325 134 0
200 -325 134 0
-200 -325 -134 0
201 326 -135 0
-201 326 135 0
201 -326 135 0
-201 -326 -135 0
202 327 -136 0
-202 327 136 0
202 -327 136 0
-202 -327 -136 0
203 328 -137 0
-203 328 137 0
203 -328 137 0
-203 -328 -137 0
204 329 -138 0
-204 329 138 0
204 -329 138 0
-204 -329 -138 0
205 330 -139 0
-205 330 139 0
205 -330 139 0
-205 -330 -139 0
206 331 -140 0
-206 331 140 0
206 -331 140 0
-206 -331 -140 0
207 332 -141 0
-207 332 141 0
207 -332 141 0
-207 -332 -141 0
208 333 -142 0
-208 333 142 0
208 -333 142 0
-208 -333 -142 0
209 334 -143 0
-209 334 143 0
209 -334 143 0
-209 -334 -143 0
210 335 -144 0
-210 335 144 0
210 -335 144 0
-210 -335 -144 0
211 336 -145 0
-211 336 145 0
211 -336 145 0
-211 -336 -145 0
212 337 -146 0
-212 337 146 0
212 -337 146 0
-212 -337 -146 0
213 338 -147 0
-213 338 147 0
213 -338 147 0
-213 -338 -147 0
214 339 -148 0
-214 339 148 0
214 -339 148 0
-214 -339 -148 0
215 340 -149 0
-215 340 149 0
215 -340 149 0
-215 -340 -149 0
216 341 -150 0
-216 341 150 0
216 -341 150 0
-216 -341 -150 0
217 342 -151 0
-217 342 151 0
217 -342 151 0
-217 -342 -151 0
218 343 -152 0
-218 343 152 0
218 -343 152 0
-218 -343 -152 0
219 344 -153 0
-219 344 153 0
219 -344 153 0
-219 -344 -153 0
220 345 -154 0
-220 345 154 0
220 -345 154 0
-220 -345 -154 0
221 346 -155 0
-221 346 155 0
221 -346 155 0
-221 -346 -155 0
222 347 -156 0
-222 347 156 0
222 -347 156 0
-222 -347 -156 0
223 348 -157 0
-223 348 157 0
223 -348 157 0
-223 -348 -157 0
224 349 -158 0
-224 349 158 0
224 -349 158 0
-224 -349 -158 0
225 350 -159 0
-225 350 159 0
225 -350 159 0
-225 -350 -159 0
226 351 -160 0
-226 351 160 0
226 -351 160 0
-226 -351 -160 0
227 352 -161 0
-227 352 161 0
227 -352 161 0
-227 -352 -161 0
228 353 -162 0
-228 353 162 0
228 -353 162 0
-228 -353 -162 0
229 354 -163 0
-229 354 163 0
229 -354 163 0
-229 -354 -163 0
230 355 -164 0
-230 355 164 0
230 -355 164 0
-230 -355 -164 0
231 356 -165 0
-231 356 165 0
231 -356 165 0
-231 -356 -165 0
232 357 -166 0
-232 357 166 0
232 -357 166 0
-232 -357 -166 0
233 358 -167 0
-233 358 167 0
233 -358 167 0
-233 -358 -167 0
234 359 -168 0
-234 359 168 0
234 -359 168 0
-234 -359 -168 0
235 360 -169 0
-235 360 169 0
235 -360 169 0
-235 -360 -169 0
236 361 -170 0
-236 361 170 0
236 -361 170 0
-236 -361 -170 0
237 362 -171 0
-237 362 171 0
237 -362 171 0
-237 -362 -171 0
238 363 -172 0
-238 363 172 0
238 -363 172 0
-238 -363 -172 0
239 364 -173 0
-239 364 173 0
239 -364 173 0
-239 -364 -173 0
240 365 -174 0
-240 365 174 0
240 -365 174 0
-240 -365 -174 0
241 366 -175 0
-241 366 175 0
241 -366 175 0
-241 -366 -175 0
242 367 -176 0
-242 367 176 0
242 -367 176 0
-242 -367 -176 0
243 368 -177 0
-243 368 177 0
243 -368 177 0
-243 -368 -177 0
244 369 -178 0
-244 369 178 0
244 -369 178 0
-244 -369 -178 0
245 370 -179 0
-245 370 179 0
245 -370 179 0
-245 -370 -179 0
246 371 -180 0
-246 371 180 0
246 -371 180 0
-246 -371 -180 0
247 372 -181 0
-247 372 181 0
247 -372 181 0
-247 -372 -181 0
248 373 -182 0
-248 373 182 0
248 -373 182 0
-248 -373 -182 0
249 374 -183 0
-249 374 183 0
249 -374 183 0
-249 -374 -183 0
250 375 -184 0
-250 375 184 0
250 -375 184 0
-250 -375 -184 0
251 376 -185 0
-251 376 185 0
251 -376 185 0
-251 -376 -185 0
252 377 -186 0
-252 377 186 0
252 -377 186 0
-252 -377 -186 0
253 378 -187 0
-253 378 187 0
253 -378 187 0
-253 -378 -187 0
254 379 -188 0
-254 379 188 0
254 -379 188 0
-254 -379 -188 0
255 380 -189 0
-255 380 189 0
255 -380 189 0
-255 -380 -189 0
381 -190 0
-381 190 0
